SAT
1 -2 -3 -40 -88 4 -5 -6 -67 -91 -106 7 -8 -9 -16 -28 -46 10 -11 -12 -49 -61 13 -14 -15 -55 -79 -118 17 -18 -59 -71 19 -20 -21 -31 -34 -37 22 -23 -24 -115 25 -26 -27 -43 -70 72 -42 41 29 -30 -107 108 -110 -102 32 -33 -92 93 35 -36 38 -39 -95 -119 120 -78 44 -45 -80 81 -113 -54 47 -48 -98 -116 117 -63 62 -104 50 -51 -74 -83 -52 53 56 -57 -68 69 -66 58 -60 -103 105 64 -65 -73 75 76 -77 -100 101 -109 111 -84 82 -85 86 -87 -89 90 94 -96 97 -99 -112 114 0